g3 0 1 0	# problem d6n6R1R6d01d05
 6 6 1 0 1	# vars, constraints, objectives, ranges, eqns
 3 1	# nonlinear constraints, objectives
 0 0	# network constraints: nonlinear, linear
 6 6 6	# nonlinear vars in constraints, objectives, both
 0 0 0 1	# linear network variables; functions; arith, flags
 0 0 0 0 0	# discrete variables: binary, integer, nonlinear (b,c,o)
 33 6	# nonzeros in Jacobian, gradients
 0 0	# max name lengths: constraints, variables
 0 0 0 0 0	# common exprs: b,c,o,c1,o1
b
0 0.26 2.15
0 0.26 2.81
0 0.28 2.78
0 0.39 2.19
0 0.62 2.94
0 0.52 2.62
r
2 90.91
2 371.477
2 1446.92
4 26.505
2 34.726
2 27.619
C0
o54
5
o2
o2
o2
n5.7
v0
v0
v4
o2
o2
o2
n1.49
v0
v5
v5
o2
o2
o2
n1.63
v1
v3
v3
o2
o2
o2
n2.18
v3
v3
v3
o2
o2
o2
n1.22
v3
v4
v5
C1
o54
16
o2
o2
o2
n7.51
v0
v0
v4
o2
o2
o2
n0.49
v0
v5
v5
o2
o2
o2
n7.34
v1
v3
v3
o2
o2
o2
n8.3
v3
v3
v3
o2
o2
o2
n1.45
v3
v4
v5
o2
o2
o2
o2
n4.56
v0
v1
v2
v2
o2
o2
o2
o2
n6.51
v0
v1
v3
v4
o2
o2
o2
o2
n0.01
v0
v2
v3
v4
o2
o2
o2
o2
n6.73
v0
v2
v5
v5
o2
o2
o2
o2
n9.76
v0
v3
v4
v5
o2
o2
o2
o2
n3.15
v1
v2
v2
v3
o2
o2
o2
o2
n9.45
v1
v2
v2
v4
o2
o2
o2
o2
n1.83
v1
v2
v4
v4
o2
o2
o2
o2
n1.07
v1
v3
v4
v5
o2
o2
o2
o2
n8.61
v2
v3
v3
v4
o2
o2
o2
o2
n8.7
v3
v3
v3
v4
C2
o54
46
o2
o2
o2
n7.85
v0
v0
v4
o2
o2
o2
n4.63
v0
v5
v5
o2
o2
o2
n2.1
v1
v3
v3
o2
o2
o2
n8.3
v3
v3
v3
o2
o2
o2
n2.39
v3
v4
v5
o2
o2
o2
o2
n0.24
v0
v1
v2
v2
o2
o2
o2
o2
n7.83
v0
v1
v3
v4
o2
o2
o2
o2
n1.05
v0
v2
v3
v4
o2
o2
o2
o2
n3
v0
v2
v5
v5
o2
o2
o2
o2
n4.85
v0
v3
v4
v5
o2
o2
o2
o2
n9.34
v1
v2
v2
v3
o2
o2
o2
o2
n3.57
v1
v2
v2
v4
o2
o2
o2
o2
n6.18
v1
v2
v4
v4
o2
o2
o2
o2
n9.29
v1
v3
v4
v5
o2
o2
o2
o2
n4.48
v2
v3
v3
v4
o2
o2
o2
o2
n0.01
v3
v3
v3
v4
o2
o2
o2
o2
o2
n0.89
v0
v0
v0
v1
v3
o2
o2
o2
o2
o2
n9.01
v0
v0
v0
v2
v2
o2
o2
o2
o2
o2
n5.13
v0
v0
v1
v3
v5
o2
o2
o2
o2
o2
n3.37
v0
v0
v3
v3
v4
o2
o2
o2
o2
o2
n8.29
v0
v0
v3
v4
v5
o2
o2
o2
o2
o2
n1.61
v0
v1
v1
v1
v5
o16
o2
o2
o2
o2
o2
n5.09
v0
v1
v1
v3
v5
o2
o2
o2
o2
o2
n6.16
v0
v1
v2
v2
v5
o2
o2
o2
o2
o2
n7.69
v0
v1
v2
v4
v4
o16
o2
o2
o2
o2
o2
n0.62
v0
v2
v2
v2
v3
o2
o2
o2
o2
o2
n4.1
v0
v2
v2
v2
v4
o2
o2
o2
o2
o2
n7.35
v0
v2
v2
v3
v4
o16
o2
o2
o2
o2
o2
n8.77
v0
v2
v4
v4
v4
o2
o2
o2
o2
o2
n5.58
v0
v2
v4
v4
v5
o2
o2
o2
o2
o2
n8.3
v1
v1
v1
v3
v5
o2
o2
o2
o2
o2
n5.47
v1
v1
v2
v4
v4
o2
o2
o2
o2
o2
n0.1
v1
v1
v3
v5
v5
o2
o2
o2
o2
o2
n8.27
v1
v1
v4
v5
v5
o2
o2
o2
o2
o2
n6.74
v1
v2
v2
v2
v2
o2
o2
o2
o2
o2
n8.08
v1
v2
v2
v4
v5
o2
o2
o2
o2
o2
n3.83
v1
v2
v3
v3
v3
o2
o2
o2
o2
o2
n5.31
v1
v2
v4
v4
v5
o2
o2
o2
o2
o2
n4.27
v1
v3
v3
v4
v4
o2
o2
o2
o2
o2
n7.41
v1
v4
v5
v5
v5
o2
o2
o2
o2
o2
n6.66
v2
v2
v2
v2
v2
o2
o2
o2
o2
o2
n6.9
v2
v2
v2
v2
v3
o2
o2
o2
o2
o2
n0.66
v2
v4
v4
v5
v5
o2
o2
o2
o2
o2
n2.28
v3
v4
v4
v4
v4
o2
o2
o2
o2
o2
n7.12
v4
v4
v4
v4
v4
o2
o2
o2
o2
o2
n1.9
v4
v5
v5
v5
v5
C3
n0
C4
n0
C5
n0
O0 0
o54
92
o2
o2
o2
n2.65
v0
v0
v4
o2
o2
o2
n6.94
v0
v5
v5
o16
o2
o2
o2
n1.78
v1
v3
v3
o2
o2
o2
n6.13
v3
v3
v3
o2
o2
o2
n3.2
v3
v4
v5
o2
o2
o2
o2
n8.47
v0
v1
v2
v2
o2
o2
o2
o2
n2.26
v0
v1
v3
v4
o2
o2
o2
o2
n9.4
v0
v2
v3
v4
o2
o2
o2
o2
n2.97
v0
v2
v5
v5
o2
o2
o2
o2
n1.04
v0
v3
v4
v5
o2
o2
o2
o2
n9.86
v1
v2
v2
v3
o2
o2
o2
o2
n1.82
v1
v2
v2
v4
o2
o2
o2
o2
n6.57
v1
v2
v4
v4
o16
o2
o2
o2
o2
n5.91
v1
v3
v4
v5
o2
o2
o2
o2
n3.86
v2
v3
v3
v4
o2
o2
o2
o2
n8.04
v3
v3
v3
v4
o2
o2
o2
o2
o2
n4.93
v0
v0
v0
v1
v3
o16
o2
o2
o2
o2
o2
n3.78
v0
v0
v0
v2
v2
o2
o2
o2
o2
o2
n0.83
v0
v0
v1
v3
v5
o2
o2
o2
o2
o2
n0.74
v0
v0
v3
v3
v4
o2
o2
o2
o2
o2
n3.79
v0
v0
v3
v4
v5
o2
o2
o2
o2
o2
n1.02
v0
v1
v1
v1
v5
o2
o2
o2
o2
o2
n1.24
v0
v1
v1
v3
v5
o2
o2
o2
o2
o2
n0.04
v0
v1
v2
v2
v5
o2
o2
o2
o2
o2
n8.41
v0
v1
v2
v4
v4
o16
o2
o2
o2
o2
o2
n2.3
v0
v2
v2
v2
v3
o2
o2
o2
o2
o2
n2.27
v0
v2
v2
v2
v4
o2
o2
o2
o2
o2
n9.18
v0
v2
v2
v3
v4
o2
o2
o2
o2
o2
n4.57
v0
v2
v4
v4
v4
o2
o2
o2
o2
o2
n9.28
v0
v2
v4
v4
v5
o2
o2
o2
o2
o2
n6.95
v1
v1
v1
v3
v5
o2
o2
o2
o2
o2
n6.42
v1
v1
v2
v4
v4
o2
o2
o2
o2
o2
n5.76
v1
v1
v3
v5
v5
o2
o2
o2
o2
o2
n5.74
v1
v1
v4
v5
v5
o2
o2
o2
o2
o2
n9.5
v1
v2
v2
v2
v2
o2
o2
o2
o2
o2
n3.21
v1
v2
v2
v4
v5
o2
o2
o2
o2
o2
n6.69
v1
v2
v3
v3
v3
o2
o2
o2
o2
o2
n8.79
v1
v2
v4
v4
v5
o2
o2
o2
o2
o2
n6.92
v1
v3
v3
v4
v4
o16
o2
o2
o2
o2
o2
n8.61
v1
v4
v5
v5
v5
o2
o2
o2
o2
o2
n2.99
v2
v2
v2
v2
v2
o2
o2
o2
o2
o2
n6.46
v2
v2
v2
v2
v3
o2
o2
o2
o2
o2
n6.86
v2
v4
v4
v5
v5
o2
o2
o2
o2
o2
n9.94
v3
v4
v4
v4
v4
o2
o2
o2
o2
o2
n7.23
v4
v4
v4
v4
v4
o2
o2
o2
o2
o2
n1.48
v4
v5
v5
v5
v5
o2
o2
o2
o2
o2
o2
n1.7
v0
v0
v0
v0
v2
v2
o2
o2
o2
o2
o2
o2
n9.7
v0
v0
v0
v1
v1
v1
o2
o2
o2
o2
o2
o2
n1.08
v0
v0
v0
v1
v1
v4
o2
o2
o2
o2
o2
o2
n1.29
v0
v0
v0
v1
v2
v4
o2
o2
o2
o2
o2
o2
n8.92
v0
v0
v0
v1
v3
v3
o2
o2
o2
o2
o2
o2
n8.75
v0
v0
v0
v2
v5
v5
o16
o2
o2
o2
o2
o2
o2
n3.85
v0
v0
v0
v3
v3
v4
o2
o2
o2
o2
o2
o2
n4.38
v0
v0
v0
v3
v4
v4
o2
o2
o2
o2
o2
o2
n7.71
v0
v0
v0
v3
v5
v5
o2
o2
o2
o2
o2
o2
n5.7
v0
v0
v0
v4
v4
v4
o16
o2
o2
o2
o2
o2
o2
n7.18
v0
v0
v1
v1
v1
v2
o2
o2
o2
o2
o2
o2
n2.78
v0
v0
v1
v1
v2
v3
o2
o2
o2
o2
o2
o2
n1.79
v0
v0
v1
v4
v4
v5
o16
o2
o2
o2
o2
o2
o2
n2.59
v0
v0
v2
v2
v3
v4
o2
o2
o2
o2
o2
o2
n6.03
v0
v0
v2
v2
v5
v5
o2
o2
o2
o2
o2
o2
n0.88
v0
v0
v2
v3
v3
v5
o2
o2
o2
o2
o2
o2
n8.53
v0
v0
v2
v4
v4
v4
o2
o2
o2
o2
o2
o2
n6.78
v0
v0
v3
v3
v4
v5
o2
o2
o2
o2
o2
o2
n5.9
v0
v1
v1
v1
v1
v3
o2
o2
o2
o2
o2
o2
n0.45
v0
v1
v1
v1
v1
v4
o2
o2
o2
o2
o2
o2
n4.3
v0
v1
v1
v1
v2
v3
o2
o2
o2
o2
o2
o2
n9.15
v0
v1
v2
v5
v5
v5
o2
o2
o2
o2
o2
o2
n6.3
v0
v1
v3
v4
v4
v5
o2
o2
o2
o2
o2
o2
n1.95
v0
v2
v2
v2
v2
v4
o2
o2
o2
o2
o2
o2
n6.08
v0
v2
v2
v2
v3
v4
o2
o2
o2
o2
o2
o2
n8.5
v0
v2
v2
v5
v5
v5
o2
o2
o2
o2
o2
o2
n0.52
v0
v2
v3
v3
v3
v4
o2
o2
o2
o2
o2
o2
n2.05
v0
v2
v3
v3
v3
v5
o2
o2
o2
o2
o2
o2
n9.29
v0
v2
v3
v4
v4
v4
o2
o2
o2
o2
o2
o2
n2.19
v0
v2
v4
v4
v5
v5
o2
o2
o2
o2
o2
o2
n1.53
v0
v4
v5
v5
v5
v5
o16
o2
o2
o2
o2
o2
o2
n7.43
v1
v1
v1
v1
v3
v5
o2
o2
o2
o2
o2
o2
n1.93
v1
v1
v1
v2
v2
v2
o2
o2
o2
o2
o2
o2
n3.1
v1
v1
v1
v3
v4
v5
o2
o2
o2
o2
o2
o2
n4.27
v1
v1
v2
v2
v2
v5
o2
o2
o2
o2
o2
o2
n4.81
v1
v1
v2
v2
v4
v5
o2
o2
o2
o2
o2
o2
n4.88
v1
v1
v2
v2
v5
v5
o2
o2
o2
o2
o2
o2
n2.75
v1
v2
v2
v2
v4
v5
o16
o2
o2
o2
o2
o2
o2
n4.12
v1
v2
v2
v2
v5
v5
o16
o2
o2
o2
o2
o2
o2
n7.23
v1
v2
v2
v3
v3
v3
o16
o2
o2
o2
o2
o2
o2
n8.54
v1
v2
v2
v3
v4
v5
o2
o2
o2
o2
o2
o2
n0.73
v2
v2
v2
v2
v2
v3
o2
o2
o2
o2
o2
o2
n1.59
v2
v3
v3
v3
v5
v5
o2
o2
o2
o2
o2
o2
n6.65
v2
v4
v4
v4
v4
v4
o2
o2
o2
o2
o2
o2
n5.67
v2
v4
v4
v4
v5
v5
o2
o2
o2
o2
o2
o2
n0.38
v3
v3
v5
v5
v5
v5
k5
6
12
18
23
28
J0 6
0 9.57
1 6.78
2 8.1
3 3.27
4 3.24
5 9.04
J1 6
0 -6.65
1 9.08
2 0.48
3 1.78
4 9.6
5 -2.86
J2 6
0 3.43
1 9.56
2 1.85
3 0.52
4 6.74
5 5.61
J3 3
0 9.33
1 7.83
2 2.12
J4 6
0 7.5
1 4
2 4.44
3 6.45
4 7.51
5 -5.69
J5 6
0 2.68
1 8.06
2 0.49
3 1.26
4 5.32
5 0.11
G0 6
0 5.52
1 5.92
2 0.8
3 4.55
4 6.05
5 2.24
